

******************************************************************************
This program contains Ipopt, a library for large-scale nonlinear optimization.
 Ipopt is released as open source code under the Eclipse Public License (EPL).
         For more information visit http://projects.coin-or.org/Ipopt
******************************************************************************

This is Ipopt version 3.12.8, running with linear solver mumps.
NOTE: Other linear solvers might be more efficient (see Ipopt documentation).

Number of nonzeros in equality constraint Jacobian...:        2
Number of nonzeros in inequality constraint Jacobian.:        0
Number of nonzeros in Lagrangian Hessian.............:        3

Total number of variables............................:        2
                     variables with only lower bounds:        0
                variables with lower and upper bounds:        0
                     variables with only upper bounds:        0
Total number of equality constraints.................:        1
Total number of inequality constraints...............:        0
        inequality constraints with only lower bounds:        0
   inequality constraints with lower and upper bounds:        0
        inequality constraints with only upper bounds:        0

iter    objective    inf_pr   inf_du lg(mu)  ||d||  lg(rg) alpha_du alpha_pr  ls
   0  0.0000000e+00 0.00e+00 1.26e-01  -1.0 0.00e+00    -  0.00e+00 0.00e+00   0
   1 -4.9611938e-01 2.27e-13 5.29e-02  -2.5 1.26e+03  -4.0 1.00e+00 5.00e-01f  2
   2 -4.9999989e-01 2.27e-13 8.51e-05  -2.5 3.19e-01    -  1.00e+00 1.00e+00f  1
   3 -5.0000000e-01 2.27e-13 1.20e-11  -5.7 1.66e-03    -  1.00e+00 1.00e+00h  1

Number of Iterations....: 3

                                   (scaled)                 (unscaled)
Objective...............:  -4.9999999999999295e-01   -4.9999999999999295e-01
Dual infeasibility......:   1.1982331793447543e-11    1.1982331793447543e-11
Constraint violation....:   2.2737367544323206e-13    2.2737367544323206e-13
Complementarity.........:   0.0000000000000000e+00    0.0000000000000000e+00
Overall NLP error.......:   1.1982331793447543e-11    1.1982331793447543e-11


Number of objective function evaluations             = 6
Number of objective gradient evaluations             = 4
Number of equality constraint evaluations            = 6
Number of inequality constraint evaluations          = 0
Number of equality constraint Jacobian evaluations   = 4
Number of inequality constraint Jacobian evaluations = 0
Number of Lagrangian Hessian evaluations             = 3
Total CPU secs in IPOPT (w/o function evaluations)   =      0.000
Total CPU secs in NLP function evaluations           =      0.000

EXIT: Optimal Solution Found.
 
Ipopt 3.12.8: Optimal Solution Found
